c FILE: random-n100-d40-e-n100-d40-1.col

p edge 100 1980
e 1 2
e 1 3
e 1 8
e 1 9
e 1 10
e 1 15
e 1 17
e 1 22
e 1 24
e 1 26
e 1 27
e 1 32
e 1 34
e 1 35
e 1 42
e 1 47
e 1 48
e 1 49
e 1 50
e 1 51
e 1 53
e 1 54
e 1 56
e 1 58
e 1 61
e 1 64
e 1 69
e 1 75
e 1 76
e 1 78
e 1 86
e 1 91
e 2 13
e 2 17
e 2 21
e 2 23
e 2 24
e 2 26
e 2 28
e 2 32
e 2 34
e 2 36
e 2 37
e 2 38
e 2 43
e 2 45
e 2 46
e 2 47
e 2 49
e 2 50
e 2 55
e 2 56
e 2 57
e 2 58
e 2 60
e 2 62
e 2 63
e 2 64
e 2 65
e 2 66
e 2 71
e 2 75
e 2 76
e 2 78
e 2 80
e 2 84
e 2 88
e 2 89
e 2 91
e 2 95
e 2 96
e 2 98
e 2 99
e 3 9
e 3 11
e 3 14
e 3 15
e 3 16
e 3 19
e 3 22
e 3 24
e 3 28
e 3 30
e 3 35
e 3 36
e 3 39
e 3 40
e 3 41
e 3 42
e 3 46
e 3 48
e 3 51
e 3 53
e 3 56
e 3 60
e 3 61
e 3 62
e 3 64
e 3 65
e 3 67
e 3 70
e 3 73
e 3 74
e 3 75
e 3 76
e 3 78
e 3 79
e 3 81
e 3 85
e 3 86
e 3 88
e 3 89
e 3 91
e 3 92
e 3 94
e 3 95
e 3 96
e 3 97
e 3 98
e 4 5
e 4 8
e 4 9
e 4 10
e 4 11
e 4 16
e 4 18
e 4 20
e 4 22
e 4 25
e 4 27
e 4 28
e 4 29
e 4 30
e 4 33
e 4 34
e 4 38
e 4 39
e 4 40
e 4 41
e 4 42
e 4 43
e 4 46
e 4 47
e 4 49
e 4 51
e 4 53
e 4 55
e 4 56
e 4 58
e 4 60
e 4 64
e 4 66
e 4 68
e 4 69
e 4 73
e 4 76
e 4 79
e 4 85
e 4 86
e 4 88
e 4 93
e 4 94
e 4 97
e 4 99
e 5 6
e 5 7
e 5 9
e 5 11
e 5 14
e 5 16
e 5 17
e 5 23
e 5 24
e 5 25
e 5 31
e 5 35
e 5 37
e 5 39
e 5 40
e 5 45
e 5 50
e 5 53
e 5 55
e 5 58
e 5 61
e 5 62
e 5 64
e 5 65
e 5 67
e 5 69
e 5 70
e 5 79
e 5 80
e 5 83
e 5 85
e 5 87
e 5 90
e 5 91
e 5 92
e 5 94
e 5 95
e 5 96
e 5 98
e 6 7
e 6 10
e 6 11
e 6 14
e 6 18
e 6 21
e 6 25
e 6 26
e 6 27
e 6 28
e 6 29
e 6 32
e 6 36
e 6 37
e 6 38
e 6 39
e 6 40
e 6 42
e 6 43
e 6 46
e 6 47
e 6 48
e 6 51
e 6 52
e 6 55
e 6 56
e 6 57
e 6 58
e 6 60
e 6 63
e 6 65
e 6 66
e 6 68
e 6 70
e 6 77
e 6 83
e 6 84
e 6 87
e 6 91
e 6 92
e 6 93
e 6 94
e 6 96
e 7 13
e 7 16
e 7 18
e 7 23
e 7 25
e 7 27
e 7 29
e 7 30
e 7 36
e 7 38
e 7 40
e 7 46
e 7 47
e 7 58
e 7 59
e 7 60
e 7 63
e 7 66
e 7 67
e 7 75
e 7 76
e 7 79
e 7 81
e 7 83
e 7 84
e 7 86
e 7 88
e 7 89
e 7 90
e 7 92
e 7 97
e 7 99
e 8 12
e 8 15
e 8 16
e 8 17
e 8 20
e 8 22
e 8 23
e 8 24
e 8 30
e 8 32
e 8 34
e 8 36
e 8 37
e 8 38
e 8 39
e 8 41
e 8 42
e 8 45
e 8 49
e 8 53
e 8 54
e 8 55
e 8 58
e 8 60
e 8 68
e 8 69
e 8 71
e 8 72
e 8 74
e 8 75
e 8 76
e 8 81
e 8 82
e 8 83
e 8 85
e 8 86
e 8 87
e 8 88
e 8 89
e 8 92
e 8 99
e 9 12
e 9 13
e 9 14
e 9 15
e 9 18
e 9 20
e 9 24
e 9 26
e 9 29
e 9 30
e 9 32
e 9 34
e 9 35
e 9 36
e 9 40
e 9 42
e 9 45
e 9 46
e 9 47
e 9 48
e 9 49
e 9 51
e 9 52
e 9 57
e 9 59
e 9 61
e 9 63
e 9 68
e 9 69
e 9 70
e 9 72
e 9 73
e 9 74
e 9 76
e 9 78
e 9 79
e 9 81
e 9 86
e 9 88
e 9 90
e 9 94
e 10 11
e 10 15
e 10 17
e 10 20
e 10 23
e 10 24
e 10 25
e 10 26
e 10 29
e 10 30
e 10 32
e 10 33
e 10 35
e 10 40
e 10 41
e 10 42
e 10 45
e 10 46
e 10 48
e 10 49
e 10 50
e 10 56
e 10 57
e 10 60
e 10 61
e 10 63
e 10 65
e 10 66
e 10 68
e 10 70
e 10 76
e 10 77
e 10 79
e 10 81
e 10 84
e 10 87
e 10 97
e 11 15
e 11 20
e 11 21
e 11 23
e 11 24
e 11 26
e 11 29
e 11 30
e 11 32
e 11 33
e 11 40
e 11 41
e 11 46
e 11 48
e 11 53
e 11 56
e 11 59
e 11 60
e 11 65
e 11 66
e 11 67
e 11 69
e 11 70
e 11 71
e 11 74
e 11 79
e 11 81
e 11 84
e 11 96
e 11 98
e 11 99
e 11 100
e 12 13
e 12 15
e 12 18
e 12 22
e 12 27
e 12 34
e 12 35
e 12 37
e 12 38
e 12 44
e 12 45
e 12 55
e 12 59
e 12 67
e 12 69
e 12 70
e 12 80
e 12 84
e 12 88
e 12 89
e 12 90
e 12 93
e 12 94
e 12 98
e 12 99
e 13 16
e 13 20
e 13 22
e 13 25
e 13 27
e 13 29
e 13 33
e 13 40
e 13 48
e 13 49
e 13 50
e 13 53
e 13 55
e 13 56
e 13 57
e 13 60
e 13 61
e 13 63
e 13 70
e 13 72
e 13 73
e 13 74
e 13 76
e 13 78
e 13 79
e 13 81
e 13 82
e 13 84
e 13 85
e 13 88
e 13 91
e 13 94
e 13 100
e 14 15
e 14 17
e 14 18
e 14 21
e 14 23
e 14 25
e 14 26
e 14 27
e 14 30
e 14 31
e 14 32
e 14 34
e 14 37
e 14 40
e 14 41
e 14 46
e 14 49
e 14 50
e 14 51
e 14 59
e 14 62
e 14 63
e 14 67
e 14 68
e 14 71
e 14 72
e 14 73
e 14 74
e 14 76
e 14 77
e 14 78
e 14 79
e 14 82
e 14 85
e 14 99
e 15 17
e 15 19
e 15 26
e 15 29
e 15 34
e 15 40
e 15 44
e 15 46
e 15 47
e 15 50
e 15 54
e 15 55
e 15 56
e 15 58
e 15 64
e 15 65
e 15 67
e 15 69
e 15 70
e 15 71
e 15 72
e 15 73
e 15 74
e 15 76
e 15 81
e 15 82
e 15 84
e 15 85
e 15 86
e 15 87
e 15 92
e 15 94
e 15 96
e 15 97
e 15 98
e 16 18
e 16 20
e 16 24
e 16 26
e 16 27
e 16 31
e 16 36
e 16 38
e 16 39
e 16 40
e 16 42
e 16 43
e 16 46
e 16 48
e 16 50
e 16 65
e 16 66
e 16 67
e 16 68
e 16 69
e 16 70
e 16 73
e 16 77
e 16 82
e 16 83
e 16 84
e 16 87
e 16 89
e 16 94
e 16 96
e 16 99
e 17 19
e 17 24
e 17 25
e 17 30
e 17 34
e 17 35
e 17 36
e 17 37
e 17 38
e 17 39
e 17 40
e 17 41
e 17 46
e 17 50
e 17 52
e 17 53
e 17 55
e 17 57
e 17 62
e 17 63
e 17 66
e 17 69
e 17 71
e 17 72
e 17 73
e 17 77
e 17 78
e 17 81
e 17 84
e 17 85
e 17 88
e 17 89
e 17 92
e 17 95
e 17 98
e 17 99
e 17 100
e 18 19
e 18 22
e 18 26
e 18 28
e 18 30
e 18 31
e 18 32
e 18 33
e 18 38
e 18 40
e 18 43
e 18 48
e 18 50
e 18 52
e 18 53
e 18 54
e 18 56
e 18 59
e 18 61
e 18 63
e 18 66
e 18 67
e 18 70
e 18 71
e 18 73
e 18 74
e 18 75
e 18 76
e 18 78
e 18 88
e 18 90
e 18 99
e 19 20
e 19 21
e 19 23
e 19 24
e 19 26
e 19 30
e 19 34
e 19 36
e 19 37
e 19 38
e 19 39
e 19 41
e 19 43
e 19 45
e 19 46
e 19 47
e 19 50
e 19 51
e 19 53
e 19 54
e 19 60
e 19 62
e 19 67
e 19 69
e 19 70
e 19 73
e 19 74
e 19 75
e 19 77
e 19 78
e 19 85
e 19 86
e 19 87
e 19 89
e 19 96
e 19 97
e 20 25
e 20 26
e 20 32
e 20 33
e 20 36
e 20 39
e 20 44
e 20 46
e 20 47
e 20 50
e 20 62
e 20 64
e 20 65
e 20 67
e 20 68
e 20 69
e 20 71
e 20 72
e 20 73
e 20 75
e 20 76
e 20 77
e 20 83
e 20 87
e 20 91
e 20 93
e 20 95
e 20 97
e 20 98
e 20 99
e 21 29
e 21 31
e 21 33
e 21 34
e 21 36
e 21 40
e 21 42
e 21 44
e 21 46
e 21 49
e 21 55
e 21 58
e 21 60
e 21 62
e 21 63
e 21 66
e 21 68
e 21 71
e 21 75
e 21 76
e 21 77
e 21 80
e 21 81
e 21 82
e 21 83
e 21 84
e 21 86
e 21 87
e 21 90
e 21 92
e 21 93
e 21 97
e 21 99
e 22 26
e 22 27
e 22 33
e 22 35
e 22 40
e 22 43
e 22 44
e 22 52
e 22 55
e 22 57
e 22 60
e 22 64
e 22 67
e 22 69
e 22 71
e 22 73
e 22 75
e 22 76
e 22 78
e 22 79
e 22 80
e 22 85
e 22 86
e 22 88
e 22 92
e 22 96
e 22 99
e 23 26
e 23 27
e 23 33
e 23 36
e 23 37
e 23 38
e 23 39
e 23 40
e 23 42
e 23 48
e 23 52
e 23 58
e 23 61
e 23 62
e 23 66
e 23 67
e 23 69
e 23 70
e 23 71
e 23 74
e 23 83
e 23 84
e 23 87
e 23 88
e 23 89
e 23 91
e 23 92
e 23 93
e 23 97
e 23 98
e 23 99
e 23 100
e 24 25
e 24 27
e 24 31
e 24 37
e 24 40
e 24 41
e 24 46
e 24 47
e 24 49
e 24 51
e 24 52
e 24 54
e 24 57
e 24 61
e 24 64
e 24 66
e 24 67
e 24 69
e 24 71
e 24 74
e 24 77
e 24 82
e 24 83
e 24 85
e 24 88
e 24 93
e 24 95
e 24 97
e 25 26
e 25 29
e 25 30
e 25 31
e 25 32
e 25 33
e 25 37
e 25 38
e 25 39
e 25 41
e 25 45
e 25 51
e 25 53
e 25 55
e 25 56
e 25 58
e 25 61
e 25 63
e 25 64
e 25 65
e 25 67
e 25 70
e 25 74
e 25 75
e 25 78
e 25 82
e 25 83
e 25 84
e 25 85
e 25 87
e 25 91
e 25 95
e 25 97
e 25 98
e 25 99
e 26 32
e 26 34
e 26 35
e 26 36
e 26 39
e 26 40
e 26 41
e 26 43
e 26 44
e 26 47
e 26 49
e 26 50
e 26 52
e 26 53
e 26 62
e 26 63
e 26 64
e 26 65
e 26 66
e 26 67
e 26 69
e 26 72
e 26 73
e 26 79
e 26 85
e 26 86
e 26 88
e 26 89
e 26 95
e 26 100
e 27 28
e 27 34
e 27 35
e 27 36
e 27 39
e 27 42
e 27 43
e 27 46
e 27 48
e 27 55
e 27 58
e 27 59
e 27 60
e 27 61
e 27 62
e 27 63
e 27 66
e 27 72
e 27 73
e 27 74
e 27 76
e 27 81
e 27 82
e 27 90
e 27 92
e 27 94
e 27 99
e 27 100
e 28 30
e 28 31
e 28 32
e 28 34
e 28 35
e 28 36
e 28 40
e 28 43
e 28 44
e 28 45
e 28 47
e 28 51
e 28 52
e 28 53
e 28 54
e 28 62
e 28 64
e 28 65
e 28 66
e 28 69
e 28 72
e 28 82
e 28 87
e 28 92
e 28 94
e 28 96
e 28 98
e 28 100
e 29 30
e 29 34
e 29 38
e 29 39
e 29 41
e 29 42
e 29 43
e 29 45
e 29 46
e 29 49
e 29 50
e 29 51
e 29 52
e 29 57
e 29 59
e 29 61
e 29 62
e 29 63
e 29 67
e 29 68
e 29 72
e 29 73
e 29 75
e 29 77
e 29 78
e 29 83
e 29 86
e 29 88
e 29 93
e 29 94
e 29 96
e 29 97
e 29 98
e 30 32
e 30 34
e 30 35
e 30 36
e 30 39
e 30 40
e 30 41
e 30 49
e 30 50
e 30 54
e 30 55
e 30 56
e 30 57
e 30 58
e 30 60
e 30 66
e 30 67
e 30 68
e 30 70
e 30 71
e 30 72
e 30 73
e 30 76
e 30 77
e 30 83
e 30 84
e 30 85
e 30 90
e 30 98
e 30 100
e 31 32
e 31 33
e 31 36
e 31 39
e 31 40
e 31 44
e 31 47
e 31 49
e 31 51
e 31 56
e 31 58
e 31 59
e 31 60
e 31 66
e 31 68
e 31 70
e 31 72
e 31 73
e 31 75
e 31 76
e 31 77
e 31 79
e 31 80
e 31 81
e 31 83
e 31 84
e 31 85
e 31 86
e 31 89
e 31 90
e 31 94
e 31 95
e 31 96
e 31 99
e 32 36
e 32 39
e 32 41
e 32 47
e 32 48
e 32 50
e 32 52
e 32 53
e 32 55
e 32 56
e 32 57
e 32 63
e 32 65
e 32 68
e 32 70
e 32 71
e 32 77
e 32 80
e 32 81
e 32 83
e 32 84
e 32 85
e 32 86
e 32 87
e 32 91
e 32 92
e 32 93
e 32 95
e 32 99
e 32 100
e 33 35
e 33 36
e 33 38
e 33 41
e 33 42
e 33 43
e 33 45
e 33 46
e 33 48
e 33 49
e 33 52
e 33 54
e 33 55
e 33 57
e 33 61
e 33 65
e 33 67
e 33 75
e 33 78
e 33 79
e 33 80
e 33 82
e 33 84
e 33 86
e 33 92
e 33 95
e 33 97
e 33 98
e 34 35
e 34 39
e 34 45
e 34 48
e 34 50
e 34 52
e 34 53
e 34 54
e 34 56
e 34 62
e 34 63
e 34 64
e 34 67
e 34 69
e 34 70
e 34 72
e 34 73
e 34 77
e 34 79
e 34 80
e 34 84
e 34 87
e 34 89
e 34 90
e 34 93
e 35 39
e 35 43
e 35 44
e 35 46
e 35 48
e 35 53
e 35 54
e 35 57
e 35 58
e 35 59
e 35 62
e 35 68
e 35 69
e 35 70
e 35 71
e 35 83
e 35 86
e 35 91
e 35 92
e 35 94
e 35 97
e 36 37
e 36 41
e 36 42
e 36 45
e 36 49
e 36 50
e 36 51
e 36 52
e 36 59
e 36 63
e 36 65
e 36 66
e 36 70
e 36 75
e 36 77
e 36 81
e 36 83
e 36 84
e 36 87
e 36 90
e 36 92
e 36 93
e 36 94
e 36 95
e 36 96
e 36 99
e 37 41
e 37 47
e 37 48
e 37 51
e 37 56
e 37 60
e 37 62
e 37 65
e 37 66
e 37 67
e 37 78
e 37 81
e 37 85
e 37 87
e 37 90
e 37 91
e 37 95
e 37 96
e 37 98
e 38 42
e 38 43
e 38 45
e 38 48
e 38 50
e 38 52
e 38 53
e 38 56
e 38 59
e 38 60
e 38 62
e 38 67
e 38 68
e 38 72
e 38 73
e 38 79
e 38 80
e 38 81
e 38 85
e 38 87
e 38 97
e 38 98
e 38 99
e 39 47
e 39 50
e 39 52
e 39 57
e 39 61
e 39 62
e 39 64
e 39 69
e 39 70
e 39 72
e 39 76
e 39 79
e 39 90
e 39 91
e 39 93
e 39 94
e 39 96
e 39 97
e 39 98
e 40 41
e 40 47
e 40 49
e 40 52
e 40 53
e 40 57
e 40 60
e 40 61
e 40 62
e 40 63
e 40 68
e 40 69
e 40 70
e 40 77
e 40 83
e 40 84
e 40 85
e 40 86
e 40 89
e 40 90
e 40 91
e 40 94
e 40 95
e 40 97
e 41 45
e 41 48
e 41 50
e 41 54
e 41 55
e 41 57
e 41 59
e 41 60
e 41 61
e 41 62
e 41 65
e 41 66
e 41 67
e 41 79
e 41 81
e 41 83
e 41 85
e 41 87
e 41 88
e 41 89
e 41 90
e 41 96
e 41 97
e 42 44
e 42 45
e 42 47
e 42 52
e 42 53
e 42 55
e 42 56
e 42 57
e 42 59
e 42 60
e 42 61
e 42 62
e 42 71
e 42 75
e 42 77
e 42 80
e 42 86
e 42 89
e 42 90
e 42 94
e 42 95
e 42 97
e 42 98
e 43 47
e 43 48
e 43 49
e 43 51
e 43 54
e 43 61
e 43 63
e 43 65
e 43 67
e 43 68
e 43 69
e 43 73
e 43 74
e 43 75
e 43 76
e 43 77
e 43 78
e 43 79
e 43 81
e 43 85
e 43 91
e 43 93
e 44 45
e 44 49
e 44 50
e 44 51
e 44 56
e 44 61
e 44 68
e 44 69
e 44 71
e 44 74
e 44 75
e 44 77
e 44 78
e 44 79
e 44 80
e 44 81
e 44 84
e 44 85
e 44 88
e 44 94
e 44 98
e 44 100
e 45 47
e 45 48
e 45 50
e 45 54
e 45 57
e 45 58
e 45 60
e 45 61
e 45 67
e 45 73
e 45 74
e 45 76
e 45 77
e 45 79
e 45 80
e 45 82
e 45 85
e 45 90
e 45 91
e 45 97
e 45 99
e 45 100
e 46 47
e 46 48
e 46 49
e 46 52
e 46 53
e 46 55
e 46 56
e 46 59
e 46 61
e 46 62
e 46 64
e 46 66
e 46 67
e 46 69
e 46 71
e 46 75
e 46 76
e 46 79
e 46 80
e 46 81
e 46 83
e 46 84
e 46 85
e 46 87
e 46 88
e 46 89
e 46 94
e 46 99
e 46 100
e 47 48
e 47 49
e 47 53
e 47 54
e 47 65
e 47 67
e 47 68
e 47 71
e 47 72
e 47 74
e 47 79
e 47 80
e 47 85
e 47 88
e 47 89
e 47 90
e 47 92
e 47 100
e 48 50
e 48 52
e 48 53
e 48 58
e 48 60
e 48 63
e 48 64
e 48 66
e 48 74
e 48 75
e 48 79
e 48 80
e 48 82
e 48 83
e 48 91
e 48 99
e 49 50
e 49 59
e 49 61
e 49 62
e 49 65
e 49 69
e 49 70
e 49 74
e 49 77
e 49 81
e 49 83
e 49 84
e 49 85
e 49 87
e 49 89
e 49 93
e 49 94
e 49 95
e 49 97
e 49 98
e 49 100
e 50 52
e 50 54
e 50 55
e 50 60
e 50 62
e 50 63
e 50 69
e 50 71
e 50 73
e 50 75
e 50 76
e 50 79
e 50 80
e 50 85
e 50 86
e 50 89
e 50 93
e 50 96
e 51 55
e 51 58
e 51 59
e 51 61
e 51 62
e 51 63
e 51 65
e 51 69
e 51 70
e 51 75
e 51 77
e 51 78
e 51 84
e 51 87
e 51 88
e 51 90
e 51 96
e 51 97
e 51 100
e 52 53
e 52 54
e 52 55
e 52 60
e 52 62
e 52 64
e 52 65
e 52 67
e 52 70
e 52 71
e 52 74
e 52 75
e 52 76
e 52 80
e 52 81
e 52 82
e 52 85
e 52 86
e 52 88
e 52 91
e 52 92
e 52 93
e 52 99
e 53 55
e 53 57
e 53 58
e 53 59
e 53 63
e 53 64
e 53 68
e 53 71
e 53 72
e 53 77
e 53 78
e 53 79
e 53 81
e 53 82
e 53 85
e 53 86
e 53 91
e 53 93
e 53 95
e 53 97
e 54 55
e 54 56
e 54 57
e 54 58
e 54 59
e 54 63
e 54 64
e 54 65
e 54 66
e 54 67
e 54 71
e 54 74
e 54 75
e 54 76
e 54 79
e 54 81
e 54 86
e 54 87
e 54 89
e 54 90
e 54 91
e 54 92
e 54 96
e 54 98
e 54 99
e 55 60
e 55 62
e 55 63
e 55 65
e 55 66
e 55 69
e 55 71
e 55 83
e 55 88
e 55 89
e 55 90
e 55 98
e 56 58
e 56 59
e 56 63
e 56 65
e 56 66
e 56 67
e 56 68
e 56 73
e 56 74
e 56 76
e 56 78
e 56 80
e 56 81
e 56 83
e 56 84
e 56 88
e 56 90
e 56 91
e 56 93
e 56 95
e 56 100
e 57 60
e 57 61
e 57 62
e 57 72
e 57 73
e 57 74
e 57 75
e 57 77
e 57 81
e 57 82
e 57 83
e 57 85
e 57 91
e 57 93
e 57 95
e 57 96
e 57 99
e 57 100
e 58 59
e 58 60
e 58 63
e 58 66
e 58 70
e 58 71
e 58 75
e 58 76
e 58 78
e 58 84
e 58 87
e 58 89
e 58 90
e 58 92
e 58 94
e 58 95
e 58 98
e 59 60
e 59 62
e 59 68
e 59 70
e 59 71
e 59 75
e 59 76
e 59 80
e 59 85
e 59 86
e 59 92
e 59 97
e 60 61
e 60 64
e 60 68
e 60 69
e 60 72
e 60 76
e 60 78
e 60 86
e 60 89
e 60 92
e 60 94
e 60 95
e 60 97
e 60 99
e 61 64
e 61 68
e 61 69
e 61 73
e 61 77
e 61 80
e 61 82
e 61 83
e 61 84
e 61 85
e 61 87
e 61 92
e 61 93
e 61 96
e 61 100
e 62 64
e 62 65
e 62 67
e 62 68
e 62 70
e 62 72
e 62 73
e 62 78
e 62 79
e 62 81
e 62 82
e 62 85
e 62 90
e 62 91
e 62 94
e 62 95
e 62 96
e 62 98
e 62 99
e 62 100
e 63 65
e 63 66
e 63 68
e 63 74
e 63 77
e 63 78
e 63 79
e 63 80
e 63 81
e 63 84
e 63 86
e 63 90
e 63 91
e 63 92
e 63 95
e 63 98
e 63 99
e 64 70
e 64 72
e 64 77
e 64 79
e 64 84
e 64 86
e 64 88
e 64 96
e 65 67
e 65 68
e 65 71
e 65 74
e 65 77
e 65 78
e 65 79
e 65 80
e 65 81
e 65 82
e 65 84
e 65 86
e 65 88
e 65 95
e 65 97
e 65 98
e 65 99
e 66 67
e 66 69
e 66 70
e 66 71
e 66 75
e 66 76
e 66 77
e 66 79
e 66 84
e 66 88
e 66 92
e 66 93
e 66 95
e 66 96
e 66 97
e 66 98
e 67 69
e 67 71
e 67 72
e 67 76
e 67 78
e 67 80
e 67 81
e 67 83
e 67 88
e 67 90
e 67 92
e 67 94
e 67 96
e 67 97
e 67 98
e 67 100
e 68 69
e 68 75
e 68 79
e 68 80
e 68 81
e 68 85
e 68 86
e 68 87
e 68 89
e 68 90
e 68 95
e 68 96
e 68 98
e 69 75
e 69 77
e 69 79
e 69 80
e 69 83
e 69 85
e 69 86
e 69 90
e 69 91
e 69 99
e 70 75
e 70 78
e 70 79
e 70 86
e 70 87
e 70 91
e 70 93
e 70 95
e 71 72
e 71 77
e 71 79
e 71 80
e 71 85
e 71 86
e 71 88
e 71 93
e 71 94
e 71 95
e 71 96
e 71 97
e 71 99
e 71 100
e 72 75
e 72 76
e 72 77
e 72 79
e 72 82
e 72 87
e 72 88
e 72 98
e 73 76
e 73 78
e 73 79
e 73 82
e 73 86
e 73 89
e 73 90
e 73 93
e 73 94
e 73 96
e 73 98
e 73 99
e 73 100
e 74 77
e 74 81
e 74 87
e 74 88
e 74 91
e 74 92
e 74 95
e 74 98
e 75 76
e 75 79
e 75 81
e 75 86
e 75 88
e 75 89
e 75 91
e 75 94
e 75 95
e 75 97
e 75 100
e 76 78
e 76 79
e 76 80
e 76 81
e 76 85
e 76 86
e 76 89
e 76 93
e 76 94
e 76 95
e 76 96
e 76 97
e 76 100
e 77 80
e 77 83
e 77 84
e 77 86
e 77 87
e 77 90
e 77 91
e 77 93
e 77 94
e 77 95
e 77 97
e 78 79
e 78 80
e 78 81
e 78 83
e 78 88
e 78 95
e 78 96
e 78 97
e 79 80
e 79 85
e 79 88
e 79 91
e 79 93
e 79 97
e 79 98
e 79 99
e 79 100
e 80 89
e 80 90
e 80 94
e 80 95
e 80 97
e 80 99
e 80 100
e 81 83
e 81 90
e 81 92
e 81 93
e 81 96
e 81 97
e 82 83
e 82 85
e 82 86
e 82 87
e 82 90
e 82 98
e 83 85
e 83 86
e 83 88
e 83 92
e 83 95
e 84 89
e 84 90
e 84 94
e 84 95
e 84 97
e 84 98
e 84 99
e 84 100
e 85 89
e 85 97
e 85 99
e 86 87
e 86 88
e 86 90
e 86 93
e 86 96
e 86 97
e 86 100
e 87 90
e 87 91
e 87 93
e 87 94
e 87 95
e 87 97
e 87 98
e 88 90
e 88 91
e 88 95
e 88 96
e 88 97
e 88 98
e 89 90
e 89 92
e 89 93
e 89 97
e 89 99
e 90 93
e 90 99
e 90 100
e 91 93
e 91 94
e 91 100
e 92 93
e 92 96
e 93 97
e 93 98
e 94 96
e 94 98
e 95 97
e 99 100